; benchmark generated from python API
(set-info :status unknown)
(declare-fun L_2 () Real)
(declare-fun S_2 () Real)
(declare-fun A_2 () Real)
(declare-fun L_3 () Real)
(declare-fun S_3 () Real)
(declare-fun A_3 () Real)
(declare-fun S_5 () Real)
(declare-fun A_5 () Real)
(declare-fun L_1 () Real)
(declare-fun S_1 () Real)
(declare-fun A_1 () Real)
(declare-fun L_0 () Real)
(declare-fun S_0 () Real)
(declare-fun A_0 () Real)
(declare-fun S_4 () Real)
(declare-fun A_4 () Real)
(assert
 (let (($x39 (>= L_0 0.0)))
 (let ((?x1234 (* 3.0 L_2)))
 (let ((?x1219 (* (- 2.0) L_1)))
 (let ((?x1218 (* 2.0 A_1)))
 (let ((?x1231 (* (- 3.0) A_2)))
 (let ((?x308 (* (- 1.0) L_3)))
 (let ((?x599 (+ A_4 ?x308 ?x1231 ?x1218 ?x1219 ?x1234)))
 (let ((?x4052 (* (/ 1.0 2.0) S_0)))
 (let ((?x434 (* (- 1.0) A_2)))
 (let ((?x7432 (* (- (/ 1.0 2.0)) L_3)))
 (let ((?x6018 (* (/ 1.0 2.0) A_4)))
 (let (($x66 (= L_2 L_1)))
 (let (($x44348 (or $x66 (<= (+ ?x6018 ?x7432 ?x434 ?x4052 L_2) (- 5.0)) (<= ?x599 (- 15.0)))))
 (let ((?x274 (* (- 1.0) L_1)))
 (let ((?x437 (* (- 1.0) A_3)))
 (let ((?x589 (+ A_4 ?x437 ?x434 A_1 ?x274 L_2)))
 (let (($x44326 (or $x66 (<= ?x589 (- 5.0)) (<= (+ (* 2.0 A_4) (* (- 2.0) A_3) ?x434 S_0 L_2) (- 5.0)))))
 (let ((?x4001 (* (- (/ 1.0 2.0)) S_0)))
 (let ((?x4212 (* (/ 1.0 2.0) S_1)))
 (let ((?x291 (* (- 1.0) L_2)))
 (let (($x76 (= L_3 L_2)))
 (let (($x55358 (or $x76 (<= (+ ?x437 (* 2.0 S_1) (* (- 1.0) S_0) L_3) (- 5.0)) (<= (+ ?x437 A_2 ?x291 ?x4212 ?x4001 L_3) (- 5.0)))))
 (let (($x41734 (<= (+ ?x437 (* (- 2.0) A_0) (* 3.0 S_1) L_3 (* 2.0 L_0)) (- 5.0))))
 (let (($x44228 (or $x76 $x41734 (<= (+ ?x437 A_2 (* (- 1.0) A_0) ?x291 S_1 L_3 L_0) (- 5.0)))))
 (let (($x44089 (or $x66 (<= (+ (* (- 2.0) A_2) A_1 S_3 ?x274 (* 2.0 L_2)) (- 10.0)) (<= (+ ?x434 (* (/ 2.0 3.0) S_3) (* (/ 1.0 3.0) S_0) L_2) (- 5.0)))))
 (let ((?x2290 (* 2.0 L_3)))
 (let ((?x440 (* (- 1.0) A_4)))
 (let ((?x36776 (+ ?x440 ?x2290 ?x437 A_2 S_5 ?x291)))
 (let (($x40608 (<= ?x36776 (- 5.0))))
 (let (($x38980 (<= (+ (* (- 3.0) A_4) (* 4.0 L_3) ?x437 (* 3.0 S_5) S_0) (- 5.0))))
 (let ((?x432 (* (- 1.0) A_1)))
 (let ((?x39003 (+ ?x440 L_3 ?x432 S_5 S_0 L_1)))
 (let (($x39007 (<= 0.0 ?x39003)))
 (let (($x41812 (<= (+ (* (- 2.0) A_4) ?x2290 ?x434 (* 2.0 S_5) S_0 L_2) (- 5.0))))
 (let (($x44015 (or $x66 (<= (+ ?x440 L_3 ?x434 A_1 S_5 ?x274 L_2) (- 5.0)) $x41812)))
 (let (($x43876 (or $x76 (<= (+ ?x437 (* (/ 4.0 3.0) S_2) (* (- (/ 1.0 3.0)) S_0) L_3) (- 5.0)))))
 (let (($x78557 (or $x66 (<= (+ ?x434 A_1 ?x274 L_2) (- 10.0)) (<= (+ ?x434 S_0 L_2) (- 15.0)))))
 (let (($x42834 (<= (+ (* (- 2.0) A_4) (* 3.0 L_3) ?x437 (* 2.0 S_5) S_1) (- 5.0))))
 (let (($x31234 (<= (+ (* (- 2.0) A_3) ?x1218 S_3 (* (- 1.0) S_0) ?x1219 ?x2290) 0.0)))
 (let (($x6479 (<= (+ ?x437 A_2 A_1 (* (- 1.0) A_0) ?x274 ?x291 L_3 L_0) 0.0)))
 (let ((?x1246 (* (- 1.0) S_0)))
 (let ((?x1226 (* (- 2.0) L_2)))
 (let ((?x1223 (* 2.0 A_2)))
 (let ((?x2306 (* (- 2.0) A_3)))
 (let (($x43206 (<= (+ ?x2306 ?x1223 A_1 ?x1226 ?x1246 ?x274 ?x2290) (- 5.0))))
 (let ((?x13938 (* (- (/ 5.0 2.0)) L_1)))
 (let ((?x16061 (* (/ 5.0 2.0) A_1)))
 (let ((?x14311 (* (- (/ 5.0 2.0)) A_3)))
 (let ((?x8665 (* (/ 3.0 2.0) L_3)))
 (let (($x41875 (<= (+ A_4 ?x8665 ?x14311 ?x16061 ?x1246 ?x13938) 0.0)))
 (let (($x29895 (<= (+ ?x2306 ?x1223 ?x1218 ?x1226 (* (- 1.0) S_2) ?x1246 ?x1219 ?x2290) 0.0)))
 (let (($x4941 (<= (+ ?x437 A_2 A_1 ?x274 (* (- 1.0) S_1) ?x291 L_3) 0.0)))
 (let ((?x9505 (* (- (/ 3.0 2.0)) L_1)))
 (let ((?x9686 (* (/ 3.0 2.0) A_1)))
 (let ((?x8239 (* (- (/ 3.0 2.0)) A_3)))
 (let (($x22480 (<= (+ ?x8239 ?x9686 S_2 ?x1246 ?x9505 ?x8665) 0.0)))
 (let ((?x4932 (* 2.0 S_5)))
 (let ((?x2269 (* 3.0 L_3)))
 (let ((?x3728 (* (- 2.0) A_4)))
 (let ((?x40144 (+ ?x3728 ?x2269 ?x437 A_1 ?x4932 ?x274)))
 (let (($x40674 (<= ?x40144 0.0)))
 (let (($x41100 (<= (+ A_4 (* (/ 1.0 2.0) L_3) ?x8239 ?x9686 (* (- 1.0) S_2) ?x9505) 0.0)))
 (let ((?x405 (* (- 1.0) S_2)))
 (let ((?x10331 (* (- (/ 1.0 2.0)) L_2)))
 (let ((?x10355 (* (/ 1.0 2.0) A_2)))
 (let ((?x8666 (* (/ 1.0 2.0) L_3)))
 (let (($x77917 (or $x76 (<= (+ ?x6018 ?x8666 ?x437 ?x10355 A_1 ?x10331 ?x405 ?x274) 0.0) $x41100)))
 (let ((?x2595 (* 2.0 L_0)))
 (let ((?x1233 (* (- 3.0) L_1)))
 (let ((?x3639 (* 2.0 S_3)))
 (let ((?x1995 (* (- 2.0) A_0)))
 (let ((?x1232 (* 3.0 A_1)))
 (let ((?x2311 (* (- 3.0) A_3)))
 (let (($x21649 (<= (+ ?x437 A_1 S_1 ?x1246 ?x274 L_3) 0.0)))
 (let (($x3654 (<= (+ A_2 (* (- 1.0) S_3) ?x291) 0.0)))
 (let (($x41881 (<= (+ ?x440 ?x2290 ?x437 A_2 A_1 S_5 ?x291 ?x405 ?x274) 0.0)))
 (let ((?x1247 (* (- 4.0) L_1)))
 (let ((?x3127 (* (- 2.0) S_1)))
 (let ((?x1245 (* 4.0 A_1)))
 (let ((?x3173 (* (- 4.0) A_3)))
 (let ((?x3664 (* 2.0 A_4)))
 (let (($x79393 (or $x76 $x6479 (<= (+ ?x437 A_1 ?x1995 (* 2.0 S_1) ?x274 L_3 ?x2595) 0.0))))
 (let (($x40823 (<= (+ (* (/ 1.0 2.0) A_3) (* (- (/ 3.0 2.0)) A_1) S_0 (* (/ 3.0 2.0) L_1) ?x7432) (- 5.0))))
 (let (($x56 (= L_1 L_0)))
 (let (($x42033 (<= (+ (* (- (/ 1.0 2.0)) A_3) (* (- (/ 1.0 2.0)) A_1) S_2 (* (/ 1.0 2.0) L_1) ?x8666) (- 5.0))))
 (let (($x736 (not $x56)))
 (let (($x78390 (or $x76 $x736 (<= (+ ?x3728 ?x2269 ?x437 A_1 ?x4932 (* (- 1.0) L_0)) 0.0) $x41881)))
 (let ((?x1527 (* (- 4.0) L_2)))
 (let ((?x399 (* (- 1.0) S_1)))
 (let ((?x1318 (* 4.0 A_2)))
 (let ((?x2287 (* (- 2.0) L_3)))
 (let ((?x1220 (* 2.0 L_2)))
 (let ((?x412 (* (- 1.0) S_3)))
 (let ((?x1217 (* (- 2.0) A_2)))
 (let ((?x2295 (* 2.0 A_3)))
 (let (($x48562 (or $x66 (<= (+ A_3 ?x434 A_1 ?x412 ?x308 ?x274 L_2) 0.0) (<= (+ ?x2295 ?x1217 ?x412 S_0 ?x1220 ?x2287) 0.0))))
 (let ((?x1225 (* 2.0 L_1)))
 (let ((?x4845 (* 2.0 S_0)))
 (let ((?x3727 (* (- 2.0) S_3)))
 (let ((?x1224 (* (- 2.0) A_1)))
 (let (($x79120 (or $x76 (<= (+ ?x2306 ?x1218 ?x1995 (* 2.0 S_2) ?x1219 ?x2290 ?x2595) 0.0))))
 (let (($x78501 (or $x66 (<= (+ A_3 ?x1217 A_1 ?x308 ?x274 ?x1220) (- 5.0)) (<= (+ ?x2295 ?x1231 S_0 ?x1234 ?x2287) (- 5.0)))))
 (let ((?x9669 (* (/ 1.0 2.0) L_1)))
 (let ((?x9478 (* (- (/ 1.0 2.0)) A_1)))
 (let ((?x8638 (* (/ 1.0 2.0) A_3)))
 (let (($x79527 (or $x56 $x3654 (<= (+ A_3 ?x432 ?x3727 (* 2.0 S_1) L_1 ?x308) 0.0))))
 (let (($x78386 (or $x76 $x736 (<= (+ ?x437 A_1 (* (- 1.0) A_0) S_2 L_3) 0.0))))
 (let (($x41606 (<= (+ (* (/ 1.0 4.0) A_4) (* (- (/ 1.0 4.0)) L_3) ?x432 (* (/ 3.0 4.0) S_0) L_1) (- 5.0))))
 (let (($x40507 (or $x76 (<= (+ ?x3173 ?x1318 S_3 ?x1246 ?x1527 (* 4.0 L_3)) 0.0))))
 (let ((?x3194 (* (- 5.0) L_2)))
 (let ((?x3168 (* 5.0 A_2)))
 (let ((?x3182 (* (- 5.0) A_3)))
 (let ((?x3165 (* 4.0 L_3)))
 (let (($x2293 (<= (+ ?x2311 (* 3.0 A_2) S_2 ?x1246 (* (- 3.0) L_2) ?x2269) 0.0)))
 (let (($x77913 (or $x76 (<= (+ ?x437 A_2 (* (- 1.0) A_0) S_1 ?x291 L_3 L_0) 0.0))))
 (let (($x22130 (<= (+ ?x2311 (* 3.0 A_2) S_3 ?x399 (* (- 3.0) L_2) ?x2269) 0.0)))
 (let ((?x1240 (* (- 3.0) L_2)))
 (let ((?x1274 (* (- 1.0) A_0)))
 (let ((?x1237 (* 3.0 A_2)))
 (let ((?x1765 (* 5.0 L_2)))
 (let ((?x1764 (* (- 5.0) L_1)))
 (let ((?x1763 (* 5.0 A_1)))
 (let ((?x1762 (* (- 5.0) A_2)))
 (let ((?x38566 (+ A_4 L_3 ?x2306 A_2 ?x291)))
 (let (($x39289 (<= ?x38566 (- 10.0))))
 (let (($x78043 (or $x76 $x39289 (<= (+ A_4 ?x8666 ?x8239 (* (/ 1.0 2.0) A_1) (* (- (/ 1.0 2.0)) L_1)) (- 5.0)))))
 (let (($x39008 (not $x39007)))
 (let (($x39381 (<= (+ A_4 ?x308 (* (- 4.0) A_2) ?x1245 ?x399 ?x1247 (* 4.0 L_2)) 0.0)))
 (let (($x3854 (<= (+ A_1 ?x412 ?x274) (- 5.0))))
 (let (($x41004 (<= (+ (* (/ 2.0 3.0) A_4) (* (/ 1.0 3.0) L_3) ?x437 (* (/ 1.0 3.0) S_1)) (- 5.0))))
 (let (($x38652 (<= (+ (* (/ 1.0 3.0) A_4) (* (- (/ 1.0 3.0)) L_3) ?x434 (* (/ 2.0 3.0) S_1) L_2) (- 5.0))))
 (let (($x3656 (<= (+ A_1 ?x405 ?x274) 0.0)))
 (let (($x41579 (or $x56 (<= (+ ?x432 (* (/ 1.0 3.0) S_3) (* (/ 2.0 3.0) S_0) L_1) (- 5.0)))))
 (let (($x38829 (<= (+ ?x437 (* (- (/ 1.0 2.0)) A_0) (* (/ 3.0 2.0) S_2) L_3 (* (/ 1.0 2.0) L_0)) (- 5.0))))
 (let (($x39629 (<= (+ (* (/ 1.0 4.0) A_4) (* (- (/ 1.0 4.0)) L_3) ?x405 (* (/ 3.0 4.0) S_0)) 0.0)))
 (let (($x79639 (or $x56 $x76 (<= (+ ?x8666 (* (- (/ 1.0 2.0)) A_3) A_2 ?x9478 ?x291 ?x9669) 0.0))))
 (let ((?x1248 (* 4.0 L_2)))
 (let ((?x1244 (* (- 4.0) A_2)))
 (let (($x39860 (<= (+ ?x6018 ?x7432 (* (- (/ 1.0 2.0)) A_2) ?x432 (* (/ 1.0 2.0) L_2) S_0 L_1) (- 5.0))))
 (let (($x40522 (or $x76 (<= (+ ?x437 (* (/ 3.0 2.0) S_2) (* (- (/ 1.0 2.0)) S_1) L_3) (- 5.0)))))
 (let (($x38810 (<= (+ (* (/ 3.0 4.0) A_4) (* (/ 1.0 4.0) L_3) ?x437 (* (/ 1.0 4.0) S_0)) (- 5.0))))
 (let (($x79201 (or $x3656 (<= (+ A_4 ?x308 ?x434 L_2 (* (- 2.0) S_2) ?x4845) 0.0))))
 (let (($x44670 (or $x3654 (<= (+ A_4 ?x308 (* (- 3.0) S_3) (* 2.0 S_1)) 0.0))))
 (let (($x39806 (or $x3654 (<= (+ A_4 ?x308 ?x3727 S_0) 0.0) (<= (+ A_4 ?x308 ?x1218 (* (- 3.0) S_3) ?x1219) 0.0))))
 (let (($x36316 (not (<= 0.0 (+ L_2 ?x308)))))
 (let (($x38632 (<= (+ A_4 ?x437 A_1 ?x412 ?x274) 0.0)))
 (let (($x39121 (or $x3654 (<= (+ ?x440 L_3 S_5 (* (- (/ 1.0 2.0)) S_3) ?x4052) 0.0) $x39007)))
 (let (($x79153 (or $x66 $x736 (<= (+ A_3 ?x1217 A_1 ?x1220 ?x308 (* (- 1.0) L_0)) 0.0))))
 (let (($x3085 (<= (+ ?x1274 ?x412 (* 2.0 S_1) L_0) 0.0)))
 (let (($x1950 (<= (+ A_2 ?x432 ?x412 S_1 L_1 ?x291) 0.0)))
 (let (($x128 (>= S_1 S_0)))
 (let (($x131 (>= S_2 S_1)))
 (let (($x134 (>= S_3 S_2)))
 (let (($x140 (>= S_5 S_4)))
 (let (($x142 (>= A_1 A_0)))
 (let (($x143 (>= A_2 A_1)))
 (let (($x144 (>= A_3 A_2)))
 (let (($x145 (>= A_4 A_3)))
 (and (<= (+ A_4 ?x308) S_4) $x145 $x144 $x143 $x142 $x140 $x134 $x131 $x128 (or $x56 (not (<= 0.0 (+ ?x274 L_0)))) (or $x66 (<= (+ ?x434 A_1 ?x274 L_2) (- 5.0))) (or $x66 (<= 0.0 (+ ?x437 ?x1223 ?x432 L_1 ?x291)) (not $x76)) (or $x56 $x66 $x76 (= (+ ?x437 ?x1223 ?x432 L_1 ?x1226 L_3) 0.0)) (or $x66 (<= (+ ?x434 S_2 L_2) (- 5.0))) (or $x66 (<= (+ ?x1217 ?x1218 ?x1274 S_2 ?x1219 ?x1220 L_0) 0.0)) (or $x66 (<= (+ ?x1231 ?x1232 S_2 ?x1246 ?x1233 ?x1234) 0.0)) (or $x66 (<= (+ ?x1217 ?x1218 S_2 ?x399 ?x1219 ?x1220) 0.0)) (or $x66 (<= (+ ?x440 L_3 ?x434 A_1 S_5 ?x274 L_2) 0.0)) (or $x56 (<= (+ ?x432 S_1 L_1) (- 5.0))) (or $x56 $x1950) (or $x66 (<= (+ ?x434 A_1 ?x1274 S_1 ?x274 L_2 L_0) 0.0)) (or $x66 (<= (+ ?x1217 ?x1218 S_1 ?x1246 ?x1219 ?x1220) 0.0)) (or $x56 (<= (+ A_2 ?x1224 S_0 ?x1225 ?x291) (- 5.0))) (or $x56 (<= (+ ?x1223 ?x1224 ?x412 S_0 ?x1225 ?x1226) 0.0)) (or $x76 $x36316) (or $x76 (<= ?x36776 0.0)) (or $x66 (<= (+ ?x1231 ?x1232 ?x1274 S_3 ?x1233 ?x1234 L_0) 0.0)) (or $x66 (<= (+ ?x1244 ?x1245 S_3 ?x1246 ?x1247 ?x1248) 0.0)) (or $x66 (not (<= 0.0 (+ L_1 ?x291)))) (or $x66 (<= (+ A_3 ?x434 ?x412 S_1 L_2 ?x308) 0.0)) (or $x66 (<= (+ A_3 ?x1217 S_1 ?x1220 ?x308) (- 5.0))) (or $x1950 $x3085) (or $x76 (<= ?x38566 (- 5.0))) (or $x76 (<= (+ ?x6018 ?x8666 ?x437 (* (/ 1.0 2.0) S_2)) (- 5.0))) (or $x76 (<= (+ ?x440 ?x2290 ?x437 S_5 S_2) (- 5.0))) (or $x76 (<= (+ ?x437 S_3 L_3) (- 5.0))) $x79153 $x39121 (or $x66 (<= (+ ?x440 L_3 ?x434 S_5 S_1 L_2) (- 5.0))) (or $x3654 (<= (+ ?x440 L_3 S_5 ?x412 S_1) 0.0)) (or $x3654 (<= (+ ?x3727 (* 3.0 S_1) ?x1246) 0.0)) (or $x66 (<= (+ ?x434 S_1 L_2) (- 10.0))) (or $x66 (<= (+ ?x434 (* (/ 3.0 2.0) S_1) ?x4001 L_2) (- 5.0))) (or $x3654 (<= (+ A_4 ?x437 ?x412 S_1) 0.0)) (or $x3654 $x38632 (<= (+ A_4 ?x437 (* (- (/ 1.0 2.0)) S_3) ?x4052) 0.0)) (or $x56 (<= (+ A_3 ?x432 ?x412 S_0 L_1 ?x291) 0.0) $x36316) $x39806 (or $x56 (<= (+ A_4 ?x437 ?x432 S_0 L_1) (- 5.0))) (or $x3656 (<= (+ A_4 ?x437 ?x405 S_0) 0.0)) $x44670 $x79201 (or $x76 (<= (+ A_4 L_3 ?x2306 ?x1223 ?x412 ?x1226) 0.0)) (or $x76 (<= (+ ?x2306 ?x1223 ?x432 S_3 L_1 ?x1226 ?x2290) 0.0)) (or $x76 (<= (+ A_4 ?x2290 ?x2311 ?x1237 ?x432 L_1 ?x1240) 0.0)) (or $x76 $x3654 $x38632) (or $x66 (<= ?x599 (- 5.0))) (or $x76 $x38810 (<= (+ ?x3664 L_3 ?x2311 A_1 ?x274) (- 15.0)) $x39289) (or $x76 (<= (+ ?x437 ?x432 L_1 (* 2.0 S_2) L_3) (- 5.0))) $x40522 (or $x3656 (<= (+ ?x440 L_3 S_5 ?x405 S_0) 0.0)) (or $x56 (<= ?x39003 (- 5.0))) (or $x76 $x3654 $x40674) (or $x66 (<= (+ ?x1217 A_1 S_3 ?x274 ?x1220) (- 5.0))) (or $x76 $x40608 $x40674) (or $x76 $x39008 (<= ?x40144 (- 5.0)) $x40608) (or $x3656 (<= (+ ?x434 S_3 L_2 ?x405 S_0) 0.0)) (or $x56 $x39860) (or $x76 (<= (+ A_4 ?x2269 ?x3173 ?x1318 ?x1274 ?x1527 L_0) 0.0)) (or $x66 (<= (+ A_4 ?x308 ?x1244 ?x1245 ?x1274 ?x1247 ?x1248 L_0) 0.0)) $x79639 (or $x3656 (<= (+ (* (/ 1.0 3.0) S_3) ?x405 (* (/ 2.0 3.0) S_0)) 0.0)) (or $x3656 (<= (+ ?x405 S_0) (- 5.0))) (or $x66 (<= ?x589 0.0)) (or $x3656 $x39629) (or $x56 (<= (+ A_2 ?x432 ?x405 S_0 L_1 ?x291) 0.0)) (or $x76 (<= (+ ?x437 A_1 S_3 ?x405 ?x274 L_3) 0.0)) (or $x66 (<= (+ A_4 ?x308 ?x1217 ?x1218 ?x412 ?x1219 ?x1220) 0.0)) (or $x76 $x38829) (or $x56 (<= (+ ?x432 (* (/ 1.0 2.0) S_2) ?x4052 L_1) (- 5.0))) (or $x3654 (<= (+ ?x412 S_1) (- 5.0))) (or $x66 (<= (+ ?x1231 ?x1232 S_3 ?x399 ?x1233 ?x1234) 0.0)) $x41579 (or $x56 (<= (+ ?x432 S_0 L_1) (- 10.0))) (or $x66 $x3656 (<= 0.0 (+ ?x437 A_2 ?x291 S_2 ?x1246 L_3))) (or $x76 (<= (+ ?x437 A_2 ?x432 L_3 S_2 L_1 ?x291) 0.0)) (or $x66 (<= (+ ?x434 ?x1274 (* 2.0 S_1) L_2 L_0) (- 5.0))) (or $x66 $x38652) (or $x66 (<= (+ A_4 ?x308 ?x1231 ?x1232 ?x405 ?x1233 ?x1234) 0.0)) (or $x76 $x41004 $x39289) (or $x3654 $x3854 (<= (+ (* (- (/ 1.0 2.0)) S_3) ?x4052) (- 5.0))) (or $x66 (<= (+ ?x1217 ?x1218 S_3 ?x405 ?x1219 ?x1220) 0.0)) (or $x66 $x39381) (or $x3085 $x3654) (or $x3654 (<= (+ ?x440 L_3 A_1 S_5 ?x412 ?x274) 0.0) $x39008) $x78043 (or $x76 (<= (+ ?x2306 ?x1223 S_3 ?x405 ?x1226 ?x2290) 0.0)) (or $x66 (<= (+ A_4 ?x308 ?x1762 ?x1763 ?x1246 ?x1764 ?x1765) 0.0)) (or $x76 (<= (+ ?x2306 ?x1223 S_2 ?x399 ?x1226 ?x2290) 0.0)) (or $x76 (<= (+ A_4 ?x2290 ?x2311 ?x1237 ?x405 ?x1240) 0.0)) (or $x76 (<= (+ ?x2306 ?x1223 ?x1274 S_2 ?x1226 ?x2290 L_0) 0.0)) (or $x76 (<= (+ ?x2311 ?x1237 ?x1274 S_3 ?x1240 ?x2269 L_0) 0.0)) (or $x76 $x22130) $x77913 (or $x76 (<= (+ ?x2306 ?x1223 S_1 ?x1246 ?x1226 ?x2290) 0.0)) (or $x76 $x2293) (or $x76 (<= (+ A_4 ?x3165 ?x3182 ?x3168 ?x1246 ?x3194) 0.0)) $x40507 (or $x56 $x41606) (or $x56 (<= (+ ?x434 ?x432 S_3 L_2 S_0 L_1) (- 5.0))) $x78386 $x79527 (or $x56 (<= (+ A_3 ?x434 ?x432 L_2 S_0 L_1 ?x308) 0.0)) (or $x56 (<= (+ ?x8638 ?x9478 ?x405 S_0 ?x9669 ?x7432) 0.0)) $x78501 $x79120 (or $x56 (<= (+ ?x2295 ?x1224 ?x3727 ?x4845 ?x1225 ?x2287) 0.0)) $x48562 (or $x76 (<= (+ A_4 ?x2269 ?x3173 ?x1318 ?x399 ?x1527) 0.0)) $x78390 (or $x76 $x6479 $x40674) (or $x76 $x6479 (<= (+ ?x3664 ?x2290 ?x3173 ?x1245 ?x1995 ?x1247 ?x2595) 0.0)) (or $x56 $x76 $x42033) (or $x56 $x40823) $x79393 (or $x76 (<= (+ ?x2306 ?x1218 (* 2.0 S_2) ?x3127 ?x1219 ?x2290) 0.0)) (or $x76 $x4941 (<= (+ ?x2311 ?x1232 ?x3639 ?x3127 ?x1233 ?x2269) 0.0)) (or $x76 $x4941 (<= (+ ?x3664 ?x2290 ?x3173 ?x1245 ?x3127 ?x1247) 0.0)) (or $x76 $x40674 $x41881) (or $x76 $x3654 $x22480) (or $x76 $x3654 $x21649) (or $x76 $x3654 $x41875) (or $x76 $x6479 $x41875) (or $x76 $x4941 $x40674) (or $x76 $x6479 (<= (+ ?x2311 ?x1232 ?x1995 ?x3639 ?x1233 ?x2269 ?x2595) 0.0)) $x77917 (or $x76 $x22480 $x43206) (or $x76 $x21649 $x29895) (or $x76 $x29895 $x40674) (or $x76 $x40674 $x43206) (or $x76 $x21649 $x43206) (or $x76 $x4941 $x22480) (or $x76 $x4941 $x31234) (or $x76 $x6479 $x22480) (or $x76 $x6479 $x21649) (or $x76 $x4941 $x41875) (or $x76 $x31234 $x43206) (or $x76 $x29895 $x31234) (or $x76 $x29895 $x41875) (or $x76 $x41875 $x43206) (or $x76 $x6479 $x31234) (or $x76 $x40608 $x42834) (or $x66 (<= (+ A_4 ?x437 ?x434 S_1 L_2) (- 5.0))) $x78557 $x43876 $x44015 (or $x76 $x39007 $x38980 $x40608) (or $x66 (<= (+ ?x434 (* (/ 1.0 2.0) S_3) ?x4212 L_2) (- 5.0))) $x44089 $x44228 $x55358 $x44326 $x44348 $x39 (<= (+ ?x440 L_3 S_4) 0.0) (<= (+ ?x1274 S_0 L_0) 0.0) (<= (+ ?x432 S_1 L_1) 0.0) (<= (+ L_3 (* (- 1.0) A_5) S_5) 0.0) (<= (+ ?x437 S_3 L_3) 0.0) (<= (+ ?x434 S_2 L_2) 0.0)))))))))))))))))))))))))))))))))))))))))))))))))))))))))))))))))))))))))))))))))))))))))))))))))))))))))))))))))))))))))))))))))))))))))))))))))))))))))))))))))
(check-sat)
